(set-info :smt-lib-version 2.6)
(set-logic QF_NIA)
(set-info :source |
 more info in 'N. P. Lopes, L. Aksoy, V. Manquinho, J. Monteiro.
 Optimally Solving the MCM Problem Using Pseudo-Boolean Satisfiability.
 Technical Report RT/43/2010, INESC-ID, Nov. 2010'. |)
(set-info :category "industrial")
(set-info :status unknown)
(declare-fun X2 () Int)
(declare-fun X3 () Int)
(declare-fun X4 () Int)
(declare-fun X5 () Int)
(declare-fun X6 () Int)
(declare-fun X7 () Int)
(declare-fun X8 () Int)
(declare-fun X9 () Int)
(declare-fun X10 () Int)
(declare-fun X11 () Int)
(declare-fun S0 () Int)
(declare-fun S1 () Int)
(declare-fun S2 () Int)
(declare-fun S3 () Int)
(declare-fun S4 () Int)
(declare-fun S5 () Int)
(declare-fun S6 () Int)
(declare-fun S7 () Int)
(declare-fun S8 () Int)
(declare-fun S9 () Int)
(declare-fun S10 () Int)
(declare-fun S11 () Int)
(declare-fun S12 () Int)
(declare-fun S13 () Int)
(declare-fun S14 () Int)
(declare-fun S15 () Int)
(declare-fun S16 () Int)
(declare-fun S17 () Int)
(declare-fun S18 () Int)
(declare-fun S19 () Int)
(define-fun power2 ((x Int)) Bool
  (or (= x 2048) (= x 1024) (= x 512) (= x 256) (= x 128) (= x 64) (= x 32) (= x 16) (= x 8) (= x 4) (= x 2) (= x 1)))
(assert (or
 (= X2 (+ S0 S1))
 (= X2 (- S0 S1))
 (= X2 (+ (* 31 S0) S1))
 (= X2 (- (* 31 S0) S1))
 (= X2 (- S0 (* 31 S1)))
 (= X2 (+ (* 31 S0) (* 31 S1)))
 (= X2 (- (* 31 S0) (* 31 S1)))
 (= X2 (+ (* 31 S0) (* 47 S1)))
 (= X2 (- (* 31 S0) (* 47 S1)))
 (= X2 (- (* 47 S0) (* 31 S1)))
 (= X2 (+ (* 47 S0) S1))
 (= X2 (- (* 47 S0) S1))
 (= X2 (- S0 (* 47 S1)))
 (= X2 (+ (* 47 S0) (* 47 S1)))
 (= X2 (- (* 47 S0) (* 47 S1)))
))
(assert (and (> X2 0) (< X2 4096) (power2 S0) (power2 S1)))
(assert (or
 (= X3 (+ S2 S3))
 (= X3 (- S2 S3))
 (= X3 (+ (* 31 S2) S3))
 (= X3 (- (* 31 S2) S3))
 (= X3 (- S2 (* 31 S3)))
 (= X3 (+ (* 31 S2) (* 31 S3)))
 (= X3 (- (* 31 S2) (* 31 S3)))
 (= X3 (+ (* 31 S2) (* 47 S3)))
 (= X3 (- (* 31 S2) (* 47 S3)))
 (= X3 (- (* 47 S2) (* 31 S3)))
 (= X3 (+ (* 31 S2) (* X2 S3)))
 (= X3 (- (* 31 S2) (* X2 S3)))
 (= X3 (- (* X2 S2) (* 31 S3)))
 (= X3 (+ (* 47 S2) S3))
 (= X3 (- (* 47 S2) S3))
 (= X3 (- S2 (* 47 S3)))
 (= X3 (+ (* 47 S2) (* 47 S3)))
 (= X3 (- (* 47 S2) (* 47 S3)))
 (= X3 (+ (* 47 S2) (* X2 S3)))
 (= X3 (- (* 47 S2) (* X2 S3)))
 (= X3 (- (* X2 S2) (* 47 S3)))
 (= X3 (+ (* X2 S2) S3))
 (= X3 (- (* X2 S2) S3))
 (= X3 (- S2 (* X2 S3)))
 (= X3 (+ (* X2 S2) (* X2 S3)))
 (= X3 (- (* X2 S2) (* X2 S3)))
))
(assert (and (> X3 0) (< X3 4096) (power2 S2) (power2 S3)))
(assert (or
 (= X4 (+ (* 31 S4) S5))
 (= X4 (- (* 31 S4) S5))
 (= X4 (- S4 (* 31 S5)))
 (= X4 (+ (* 31 S4) (* 31 S5)))
 (= X4 (- (* 31 S4) (* 31 S5)))
 (= X4 (+ (* 31 S4) (* 47 S5)))
 (= X4 (- (* 31 S4) (* 47 S5)))
 (= X4 (- (* 47 S4) (* 31 S5)))
 (= X4 (+ (* 31 S4) (* X2 S5)))
 (= X4 (- (* 31 S4) (* X2 S5)))
 (= X4 (- (* X2 S4) (* 31 S5)))
 (= X4 (+ (* 31 S4) (* X3 S5)))
 (= X4 (- (* 31 S4) (* X3 S5)))
 (= X4 (- (* X3 S4) (* 31 S5)))
 (= X4 (+ (* 47 S4) S5))
 (= X4 (- (* 47 S4) S5))
 (= X4 (- S4 (* 47 S5)))
 (= X4 (+ (* 47 S4) (* 47 S5)))
 (= X4 (- (* 47 S4) (* 47 S5)))
 (= X4 (+ (* 47 S4) (* X2 S5)))
 (= X4 (- (* 47 S4) (* X2 S5)))
 (= X4 (- (* X2 S4) (* 47 S5)))
 (= X4 (+ (* 47 S4) (* X3 S5)))
 (= X4 (- (* 47 S4) (* X3 S5)))
 (= X4 (- (* X3 S4) (* 47 S5)))
 (= X4 (+ (* X2 S4) S5))
 (= X4 (- (* X2 S4) S5))
 (= X4 (- S4 (* X2 S5)))
 (= X4 (+ (* X2 S4) (* X2 S5)))
 (= X4 (- (* X2 S4) (* X2 S5)))
 (= X4 (+ (* X2 S4) (* X3 S5)))
 (= X4 (- (* X2 S4) (* X3 S5)))
 (= X4 (- (* X3 S4) (* X2 S5)))
 (= X4 (+ (* X3 S4) S5))
 (= X4 (- (* X3 S4) S5))
 (= X4 (- S4 (* X3 S5)))
 (= X4 (+ (* X3 S4) (* X3 S5)))
 (= X4 (- (* X3 S4) (* X3 S5)))
))
(assert (and (> X4 0) (< X4 4096) (power2 S4) (power2 S5)))
(assert (or
 (= X5 (+ (* 31 S6) S7))
 (= X5 (- (* 31 S6) S7))
 (= X5 (- S6 (* 31 S7)))
 (= X5 (+ (* 31 S6) (* 31 S7)))
 (= X5 (- (* 31 S6) (* 31 S7)))
 (= X5 (+ (* 31 S6) (* 47 S7)))
 (= X5 (- (* 31 S6) (* 47 S7)))
 (= X5 (- (* 47 S6) (* 31 S7)))
 (= X5 (+ (* 31 S6) (* X2 S7)))
 (= X5 (- (* 31 S6) (* X2 S7)))
 (= X5 (- (* X2 S6) (* 31 S7)))
 (= X5 (+ (* 31 S6) (* X3 S7)))
 (= X5 (- (* 31 S6) (* X3 S7)))
 (= X5 (- (* X3 S6) (* 31 S7)))
 (= X5 (+ (* 31 S6) (* X4 S7)))
 (= X5 (- (* 31 S6) (* X4 S7)))
 (= X5 (- (* X4 S6) (* 31 S7)))
 (= X5 (+ (* 47 S6) S7))
 (= X5 (- (* 47 S6) S7))
 (= X5 (- S6 (* 47 S7)))
 (= X5 (+ (* 47 S6) (* 47 S7)))
 (= X5 (- (* 47 S6) (* 47 S7)))
 (= X5 (+ (* 47 S6) (* X2 S7)))
 (= X5 (- (* 47 S6) (* X2 S7)))
 (= X5 (- (* X2 S6) (* 47 S7)))
 (= X5 (+ (* 47 S6) (* X3 S7)))
 (= X5 (- (* 47 S6) (* X3 S7)))
 (= X5 (- (* X3 S6) (* 47 S7)))
 (= X5 (+ (* 47 S6) (* X4 S7)))
 (= X5 (- (* 47 S6) (* X4 S7)))
 (= X5 (- (* X4 S6) (* 47 S7)))
 (= X5 (+ (* X2 S6) S7))
 (= X5 (- (* X2 S6) S7))
 (= X5 (- S6 (* X2 S7)))
 (= X5 (+ (* X2 S6) (* X2 S7)))
 (= X5 (- (* X2 S6) (* X2 S7)))
 (= X5 (+ (* X2 S6) (* X3 S7)))
 (= X5 (- (* X2 S6) (* X3 S7)))
 (= X5 (- (* X3 S6) (* X2 S7)))
 (= X5 (+ (* X2 S6) (* X4 S7)))
 (= X5 (- (* X2 S6) (* X4 S7)))
 (= X5 (- (* X4 S6) (* X2 S7)))
 (= X5 (+ (* X3 S6) S7))
 (= X5 (- (* X3 S6) S7))
 (= X5 (- S6 (* X3 S7)))
 (= X5 (+ (* X3 S6) (* X3 S7)))
 (= X5 (- (* X3 S6) (* X3 S7)))
 (= X5 (+ (* X3 S6) (* X4 S7)))
 (= X5 (- (* X3 S6) (* X4 S7)))
 (= X5 (- (* X4 S6) (* X3 S7)))
 (= X5 (+ (* X4 S6) S7))
 (= X5 (- (* X4 S6) S7))
 (= X5 (- S6 (* X4 S7)))
 (= X5 (+ (* X4 S6) (* X4 S7)))
 (= X5 (- (* X4 S6) (* X4 S7)))
))
(assert (and (> X5 0) (< X5 4096) (power2 S6) (power2 S7)))
(assert (or
 (= X6 (+ (* 31 S8) S9))
 (= X6 (- (* 31 S8) S9))
 (= X6 (- S8 (* 31 S9)))
 (= X6 (+ (* 31 S8) (* 31 S9)))
 (= X6 (- (* 31 S8) (* 31 S9)))
 (= X6 (+ (* 31 S8) (* 47 S9)))
 (= X6 (- (* 31 S8) (* 47 S9)))
 (= X6 (- (* 47 S8) (* 31 S9)))
 (= X6 (+ (* 31 S8) (* X2 S9)))
 (= X6 (- (* 31 S8) (* X2 S9)))
 (= X6 (- (* X2 S8) (* 31 S9)))
 (= X6 (+ (* 31 S8) (* X3 S9)))
 (= X6 (- (* 31 S8) (* X3 S9)))
 (= X6 (- (* X3 S8) (* 31 S9)))
 (= X6 (+ (* 31 S8) (* X4 S9)))
 (= X6 (- (* 31 S8) (* X4 S9)))
 (= X6 (- (* X4 S8) (* 31 S9)))
 (= X6 (+ (* 31 S8) (* X5 S9)))
 (= X6 (- (* 31 S8) (* X5 S9)))
 (= X6 (- (* X5 S8) (* 31 S9)))
 (= X6 (+ (* 47 S8) S9))
 (= X6 (- (* 47 S8) S9))
 (= X6 (- S8 (* 47 S9)))
 (= X6 (+ (* 47 S8) (* 47 S9)))
 (= X6 (- (* 47 S8) (* 47 S9)))
 (= X6 (+ (* 47 S8) (* X2 S9)))
 (= X6 (- (* 47 S8) (* X2 S9)))
 (= X6 (- (* X2 S8) (* 47 S9)))
 (= X6 (+ (* 47 S8) (* X3 S9)))
 (= X6 (- (* 47 S8) (* X3 S9)))
 (= X6 (- (* X3 S8) (* 47 S9)))
 (= X6 (+ (* 47 S8) (* X4 S9)))
 (= X6 (- (* 47 S8) (* X4 S9)))
 (= X6 (- (* X4 S8) (* 47 S9)))
 (= X6 (+ (* 47 S8) (* X5 S9)))
 (= X6 (- (* 47 S8) (* X5 S9)))
 (= X6 (- (* X5 S8) (* 47 S9)))
 (= X6 (+ (* X2 S8) S9))
 (= X6 (- (* X2 S8) S9))
 (= X6 (- S8 (* X2 S9)))
 (= X6 (+ (* X2 S8) (* X2 S9)))
 (= X6 (- (* X2 S8) (* X2 S9)))
 (= X6 (+ (* X2 S8) (* X3 S9)))
 (= X6 (- (* X2 S8) (* X3 S9)))
 (= X6 (- (* X3 S8) (* X2 S9)))
 (= X6 (+ (* X2 S8) (* X4 S9)))
 (= X6 (- (* X2 S8) (* X4 S9)))
 (= X6 (- (* X4 S8) (* X2 S9)))
 (= X6 (+ (* X2 S8) (* X5 S9)))
 (= X6 (- (* X2 S8) (* X5 S9)))
 (= X6 (- (* X5 S8) (* X2 S9)))
 (= X6 (+ (* X3 S8) S9))
 (= X6 (- (* X3 S8) S9))
 (= X6 (- S8 (* X3 S9)))
 (= X6 (+ (* X3 S8) (* X3 S9)))
 (= X6 (- (* X3 S8) (* X3 S9)))
 (= X6 (+ (* X3 S8) (* X4 S9)))
 (= X6 (- (* X3 S8) (* X4 S9)))
 (= X6 (- (* X4 S8) (* X3 S9)))
 (= X6 (+ (* X3 S8) (* X5 S9)))
 (= X6 (- (* X3 S8) (* X5 S9)))
 (= X6 (- (* X5 S8) (* X3 S9)))
 (= X6 (+ (* X4 S8) S9))
 (= X6 (- (* X4 S8) S9))
 (= X6 (- S8 (* X4 S9)))
 (= X6 (+ (* X4 S8) (* X4 S9)))
 (= X6 (- (* X4 S8) (* X4 S9)))
 (= X6 (+ (* X4 S8) (* X5 S9)))
 (= X6 (- (* X4 S8) (* X5 S9)))
 (= X6 (- (* X5 S8) (* X4 S9)))
 (= X6 (+ (* X5 S8) S9))
 (= X6 (- (* X5 S8) S9))
 (= X6 (- S8 (* X5 S9)))
 (= X6 (+ (* X5 S8) (* X5 S9)))
 (= X6 (- (* X5 S8) (* X5 S9)))
))
(assert (and (> X6 0) (< X6 4096) (power2 S8) (power2 S9)))
(assert (or
 (= X7 (+ (* 31 S10) S11))
 (= X7 (- (* 31 S10) S11))
 (= X7 (- S10 (* 31 S11)))
 (= X7 (+ (* 31 S10) (* 31 S11)))
 (= X7 (- (* 31 S10) (* 31 S11)))
 (= X7 (+ (* 31 S10) (* 47 S11)))
 (= X7 (- (* 31 S10) (* 47 S11)))
 (= X7 (- (* 47 S10) (* 31 S11)))
 (= X7 (+ (* 31 S10) (* X2 S11)))
 (= X7 (- (* 31 S10) (* X2 S11)))
 (= X7 (- (* X2 S10) (* 31 S11)))
 (= X7 (+ (* 31 S10) (* X3 S11)))
 (= X7 (- (* 31 S10) (* X3 S11)))
 (= X7 (- (* X3 S10) (* 31 S11)))
 (= X7 (+ (* 31 S10) (* X4 S11)))
 (= X7 (- (* 31 S10) (* X4 S11)))
 (= X7 (- (* X4 S10) (* 31 S11)))
 (= X7 (+ (* 31 S10) (* X5 S11)))
 (= X7 (- (* 31 S10) (* X5 S11)))
 (= X7 (- (* X5 S10) (* 31 S11)))
 (= X7 (+ (* 31 S10) (* X6 S11)))
 (= X7 (- (* 31 S10) (* X6 S11)))
 (= X7 (- (* X6 S10) (* 31 S11)))
 (= X7 (+ (* 47 S10) S11))
 (= X7 (- (* 47 S10) S11))
 (= X7 (- S10 (* 47 S11)))
 (= X7 (+ (* 47 S10) (* 47 S11)))
 (= X7 (- (* 47 S10) (* 47 S11)))
 (= X7 (+ (* 47 S10) (* X2 S11)))
 (= X7 (- (* 47 S10) (* X2 S11)))
 (= X7 (- (* X2 S10) (* 47 S11)))
 (= X7 (+ (* 47 S10) (* X3 S11)))
 (= X7 (- (* 47 S10) (* X3 S11)))
 (= X7 (- (* X3 S10) (* 47 S11)))
 (= X7 (+ (* 47 S10) (* X4 S11)))
 (= X7 (- (* 47 S10) (* X4 S11)))
 (= X7 (- (* X4 S10) (* 47 S11)))
 (= X7 (+ (* 47 S10) (* X5 S11)))
 (= X7 (- (* 47 S10) (* X5 S11)))
 (= X7 (- (* X5 S10) (* 47 S11)))
 (= X7 (+ (* 47 S10) (* X6 S11)))
 (= X7 (- (* 47 S10) (* X6 S11)))
 (= X7 (- (* X6 S10) (* 47 S11)))
 (= X7 (+ (* X2 S10) S11))
 (= X7 (- (* X2 S10) S11))
 (= X7 (- S10 (* X2 S11)))
 (= X7 (+ (* X2 S10) (* X2 S11)))
 (= X7 (- (* X2 S10) (* X2 S11)))
 (= X7 (+ (* X2 S10) (* X3 S11)))
 (= X7 (- (* X2 S10) (* X3 S11)))
 (= X7 (- (* X3 S10) (* X2 S11)))
 (= X7 (+ (* X2 S10) (* X4 S11)))
 (= X7 (- (* X2 S10) (* X4 S11)))
 (= X7 (- (* X4 S10) (* X2 S11)))
 (= X7 (+ (* X2 S10) (* X5 S11)))
 (= X7 (- (* X2 S10) (* X5 S11)))
 (= X7 (- (* X5 S10) (* X2 S11)))
 (= X7 (+ (* X2 S10) (* X6 S11)))
 (= X7 (- (* X2 S10) (* X6 S11)))
 (= X7 (- (* X6 S10) (* X2 S11)))
 (= X7 (+ (* X3 S10) S11))
 (= X7 (- (* X3 S10) S11))
 (= X7 (- S10 (* X3 S11)))
 (= X7 (+ (* X3 S10) (* X3 S11)))
 (= X7 (- (* X3 S10) (* X3 S11)))
 (= X7 (+ (* X3 S10) (* X4 S11)))
 (= X7 (- (* X3 S10) (* X4 S11)))
 (= X7 (- (* X4 S10) (* X3 S11)))
 (= X7 (+ (* X3 S10) (* X5 S11)))
 (= X7 (- (* X3 S10) (* X5 S11)))
 (= X7 (- (* X5 S10) (* X3 S11)))
 (= X7 (+ (* X3 S10) (* X6 S11)))
 (= X7 (- (* X3 S10) (* X6 S11)))
 (= X7 (- (* X6 S10) (* X3 S11)))
 (= X7 (+ (* X4 S10) S11))
 (= X7 (- (* X4 S10) S11))
 (= X7 (- S10 (* X4 S11)))
 (= X7 (+ (* X4 S10) (* X4 S11)))
 (= X7 (- (* X4 S10) (* X4 S11)))
 (= X7 (+ (* X4 S10) (* X5 S11)))
 (= X7 (- (* X4 S10) (* X5 S11)))
 (= X7 (- (* X5 S10) (* X4 S11)))
 (= X7 (+ (* X4 S10) (* X6 S11)))
 (= X7 (- (* X4 S10) (* X6 S11)))
 (= X7 (- (* X6 S10) (* X4 S11)))
 (= X7 (+ (* X5 S10) S11))
 (= X7 (- (* X5 S10) S11))
 (= X7 (- S10 (* X5 S11)))
 (= X7 (+ (* X5 S10) (* X5 S11)))
 (= X7 (- (* X5 S10) (* X5 S11)))
 (= X7 (+ (* X5 S10) (* X6 S11)))
 (= X7 (- (* X5 S10) (* X6 S11)))
 (= X7 (- (* X6 S10) (* X5 S11)))
 (= X7 (+ (* X6 S10) S11))
 (= X7 (- (* X6 S10) S11))
 (= X7 (- S10 (* X6 S11)))
 (= X7 (+ (* X6 S10) (* X6 S11)))
 (= X7 (- (* X6 S10) (* X6 S11)))
))
(assert (and (> X7 0) (< X7 4096) (power2 S10) (power2 S11)))
(assert (or
 (= X8 (+ (* 31 S12) S13))
 (= X8 (- (* 31 S12) S13))
 (= X8 (- S12 (* 31 S13)))
 (= X8 (+ (* 31 S12) (* 31 S13)))
 (= X8 (- (* 31 S12) (* 31 S13)))
 (= X8 (+ (* 31 S12) (* 47 S13)))
 (= X8 (- (* 31 S12) (* 47 S13)))
 (= X8 (- (* 47 S12) (* 31 S13)))
 (= X8 (+ (* 31 S12) (* X2 S13)))
 (= X8 (- (* 31 S12) (* X2 S13)))
 (= X8 (- (* X2 S12) (* 31 S13)))
 (= X8 (+ (* 31 S12) (* X3 S13)))
 (= X8 (- (* 31 S12) (* X3 S13)))
 (= X8 (- (* X3 S12) (* 31 S13)))
 (= X8 (+ (* 31 S12) (* X4 S13)))
 (= X8 (- (* 31 S12) (* X4 S13)))
 (= X8 (- (* X4 S12) (* 31 S13)))
 (= X8 (+ (* 31 S12) (* X5 S13)))
 (= X8 (- (* 31 S12) (* X5 S13)))
 (= X8 (- (* X5 S12) (* 31 S13)))
 (= X8 (+ (* 31 S12) (* X6 S13)))
 (= X8 (- (* 31 S12) (* X6 S13)))
 (= X8 (- (* X6 S12) (* 31 S13)))
 (= X8 (+ (* 31 S12) (* X7 S13)))
 (= X8 (- (* 31 S12) (* X7 S13)))
 (= X8 (- (* X7 S12) (* 31 S13)))
 (= X8 (+ (* 47 S12) S13))
 (= X8 (- (* 47 S12) S13))
 (= X8 (- S12 (* 47 S13)))
 (= X8 (+ (* 47 S12) (* 47 S13)))
 (= X8 (- (* 47 S12) (* 47 S13)))
 (= X8 (+ (* 47 S12) (* X2 S13)))
 (= X8 (- (* 47 S12) (* X2 S13)))
 (= X8 (- (* X2 S12) (* 47 S13)))
 (= X8 (+ (* 47 S12) (* X3 S13)))
 (= X8 (- (* 47 S12) (* X3 S13)))
 (= X8 (- (* X3 S12) (* 47 S13)))
 (= X8 (+ (* 47 S12) (* X4 S13)))
 (= X8 (- (* 47 S12) (* X4 S13)))
 (= X8 (- (* X4 S12) (* 47 S13)))
 (= X8 (+ (* 47 S12) (* X5 S13)))
 (= X8 (- (* 47 S12) (* X5 S13)))
 (= X8 (- (* X5 S12) (* 47 S13)))
 (= X8 (+ (* 47 S12) (* X6 S13)))
 (= X8 (- (* 47 S12) (* X6 S13)))
 (= X8 (- (* X6 S12) (* 47 S13)))
 (= X8 (+ (* 47 S12) (* X7 S13)))
 (= X8 (- (* 47 S12) (* X7 S13)))
 (= X8 (- (* X7 S12) (* 47 S13)))
 (= X8 (+ (* X2 S12) S13))
 (= X8 (- (* X2 S12) S13))
 (= X8 (- S12 (* X2 S13)))
 (= X8 (+ (* X2 S12) (* X2 S13)))
 (= X8 (- (* X2 S12) (* X2 S13)))
 (= X8 (+ (* X2 S12) (* X3 S13)))
 (= X8 (- (* X2 S12) (* X3 S13)))
 (= X8 (- (* X3 S12) (* X2 S13)))
 (= X8 (+ (* X2 S12) (* X4 S13)))
 (= X8 (- (* X2 S12) (* X4 S13)))
 (= X8 (- (* X4 S12) (* X2 S13)))
 (= X8 (+ (* X2 S12) (* X5 S13)))
 (= X8 (- (* X2 S12) (* X5 S13)))
 (= X8 (- (* X5 S12) (* X2 S13)))
 (= X8 (+ (* X2 S12) (* X6 S13)))
 (= X8 (- (* X2 S12) (* X6 S13)))
 (= X8 (- (* X6 S12) (* X2 S13)))
 (= X8 (+ (* X2 S12) (* X7 S13)))
 (= X8 (- (* X2 S12) (* X7 S13)))
 (= X8 (- (* X7 S12) (* X2 S13)))
 (= X8 (+ (* X3 S12) S13))
 (= X8 (- (* X3 S12) S13))
 (= X8 (- S12 (* X3 S13)))
 (= X8 (+ (* X3 S12) (* X3 S13)))
 (= X8 (- (* X3 S12) (* X3 S13)))
 (= X8 (+ (* X3 S12) (* X4 S13)))
 (= X8 (- (* X3 S12) (* X4 S13)))
 (= X8 (- (* X4 S12) (* X3 S13)))
 (= X8 (+ (* X3 S12) (* X5 S13)))
 (= X8 (- (* X3 S12) (* X5 S13)))
 (= X8 (- (* X5 S12) (* X3 S13)))
 (= X8 (+ (* X3 S12) (* X6 S13)))
 (= X8 (- (* X3 S12) (* X6 S13)))
 (= X8 (- (* X6 S12) (* X3 S13)))
 (= X8 (+ (* X3 S12) (* X7 S13)))
 (= X8 (- (* X3 S12) (* X7 S13)))
 (= X8 (- (* X7 S12) (* X3 S13)))
 (= X8 (+ (* X4 S12) S13))
 (= X8 (- (* X4 S12) S13))
 (= X8 (- S12 (* X4 S13)))
 (= X8 (+ (* X4 S12) (* X4 S13)))
 (= X8 (- (* X4 S12) (* X4 S13)))
 (= X8 (+ (* X4 S12) (* X5 S13)))
 (= X8 (- (* X4 S12) (* X5 S13)))
 (= X8 (- (* X5 S12) (* X4 S13)))
 (= X8 (+ (* X4 S12) (* X6 S13)))
 (= X8 (- (* X4 S12) (* X6 S13)))
 (= X8 (- (* X6 S12) (* X4 S13)))
 (= X8 (+ (* X4 S12) (* X7 S13)))
 (= X8 (- (* X4 S12) (* X7 S13)))
 (= X8 (- (* X7 S12) (* X4 S13)))
 (= X8 (+ (* X5 S12) S13))
 (= X8 (- (* X5 S12) S13))
 (= X8 (- S12 (* X5 S13)))
 (= X8 (+ (* X5 S12) (* X5 S13)))
 (= X8 (- (* X5 S12) (* X5 S13)))
 (= X8 (+ (* X5 S12) (* X6 S13)))
 (= X8 (- (* X5 S12) (* X6 S13)))
 (= X8 (- (* X6 S12) (* X5 S13)))
 (= X8 (+ (* X5 S12) (* X7 S13)))
 (= X8 (- (* X5 S12) (* X7 S13)))
 (= X8 (- (* X7 S12) (* X5 S13)))
 (= X8 (+ (* X6 S12) S13))
 (= X8 (- (* X6 S12) S13))
 (= X8 (- S12 (* X6 S13)))
 (= X8 (+ (* X6 S12) (* X6 S13)))
 (= X8 (- (* X6 S12) (* X6 S13)))
 (= X8 (+ (* X6 S12) (* X7 S13)))
 (= X8 (- (* X6 S12) (* X7 S13)))
 (= X8 (- (* X7 S12) (* X6 S13)))
 (= X8 (+ (* X7 S12) S13))
 (= X8 (- (* X7 S12) S13))
 (= X8 (- S12 (* X7 S13)))
 (= X8 (+ (* X7 S12) (* X7 S13)))
 (= X8 (- (* X7 S12) (* X7 S13)))
))
(assert (and (> X8 0) (< X8 4096) (power2 S12) (power2 S13)))
(assert (or
 (= X9 (+ (* 31 S14) S15))
 (= X9 (- (* 31 S14) S15))
 (= X9 (- S14 (* 31 S15)))
 (= X9 (+ (* 31 S14) (* 31 S15)))
 (= X9 (- (* 31 S14) (* 31 S15)))
 (= X9 (+ (* 31 S14) (* 47 S15)))
 (= X9 (- (* 31 S14) (* 47 S15)))
 (= X9 (- (* 47 S14) (* 31 S15)))
 (= X9 (+ (* 31 S14) (* X2 S15)))
 (= X9 (- (* 31 S14) (* X2 S15)))
 (= X9 (- (* X2 S14) (* 31 S15)))
 (= X9 (+ (* 31 S14) (* X3 S15)))
 (= X9 (- (* 31 S14) (* X3 S15)))
 (= X9 (- (* X3 S14) (* 31 S15)))
 (= X9 (+ (* 31 S14) (* X4 S15)))
 (= X9 (- (* 31 S14) (* X4 S15)))
 (= X9 (- (* X4 S14) (* 31 S15)))
 (= X9 (+ (* 31 S14) (* X5 S15)))
 (= X9 (- (* 31 S14) (* X5 S15)))
 (= X9 (- (* X5 S14) (* 31 S15)))
 (= X9 (+ (* 31 S14) (* X6 S15)))
 (= X9 (- (* 31 S14) (* X6 S15)))
 (= X9 (- (* X6 S14) (* 31 S15)))
 (= X9 (+ (* 31 S14) (* X7 S15)))
 (= X9 (- (* 31 S14) (* X7 S15)))
 (= X9 (- (* X7 S14) (* 31 S15)))
 (= X9 (+ (* 31 S14) (* X8 S15)))
 (= X9 (- (* 31 S14) (* X8 S15)))
 (= X9 (- (* X8 S14) (* 31 S15)))
 (= X9 (+ (* 47 S14) S15))
 (= X9 (- (* 47 S14) S15))
 (= X9 (- S14 (* 47 S15)))
 (= X9 (+ (* 47 S14) (* 47 S15)))
 (= X9 (- (* 47 S14) (* 47 S15)))
 (= X9 (+ (* 47 S14) (* X2 S15)))
 (= X9 (- (* 47 S14) (* X2 S15)))
 (= X9 (- (* X2 S14) (* 47 S15)))
 (= X9 (+ (* 47 S14) (* X3 S15)))
 (= X9 (- (* 47 S14) (* X3 S15)))
 (= X9 (- (* X3 S14) (* 47 S15)))
 (= X9 (+ (* 47 S14) (* X4 S15)))
 (= X9 (- (* 47 S14) (* X4 S15)))
 (= X9 (- (* X4 S14) (* 47 S15)))
 (= X9 (+ (* 47 S14) (* X5 S15)))
 (= X9 (- (* 47 S14) (* X5 S15)))
 (= X9 (- (* X5 S14) (* 47 S15)))
 (= X9 (+ (* 47 S14) (* X6 S15)))
 (= X9 (- (* 47 S14) (* X6 S15)))
 (= X9 (- (* X6 S14) (* 47 S15)))
 (= X9 (+ (* 47 S14) (* X7 S15)))
 (= X9 (- (* 47 S14) (* X7 S15)))
 (= X9 (- (* X7 S14) (* 47 S15)))
 (= X9 (+ (* 47 S14) (* X8 S15)))
 (= X9 (- (* 47 S14) (* X8 S15)))
 (= X9 (- (* X8 S14) (* 47 S15)))
 (= X9 (+ (* X2 S14) S15))
 (= X9 (- (* X2 S14) S15))
 (= X9 (- S14 (* X2 S15)))
 (= X9 (+ (* X2 S14) (* X2 S15)))
 (= X9 (- (* X2 S14) (* X2 S15)))
 (= X9 (+ (* X2 S14) (* X3 S15)))
 (= X9 (- (* X2 S14) (* X3 S15)))
 (= X9 (- (* X3 S14) (* X2 S15)))
 (= X9 (+ (* X2 S14) (* X4 S15)))
 (= X9 (- (* X2 S14) (* X4 S15)))
 (= X9 (- (* X4 S14) (* X2 S15)))
 (= X9 (+ (* X2 S14) (* X5 S15)))
 (= X9 (- (* X2 S14) (* X5 S15)))
 (= X9 (- (* X5 S14) (* X2 S15)))
 (= X9 (+ (* X2 S14) (* X6 S15)))
 (= X9 (- (* X2 S14) (* X6 S15)))
 (= X9 (- (* X6 S14) (* X2 S15)))
 (= X9 (+ (* X2 S14) (* X7 S15)))
 (= X9 (- (* X2 S14) (* X7 S15)))
 (= X9 (- (* X7 S14) (* X2 S15)))
 (= X9 (+ (* X2 S14) (* X8 S15)))
 (= X9 (- (* X2 S14) (* X8 S15)))
 (= X9 (- (* X8 S14) (* X2 S15)))
 (= X9 (+ (* X3 S14) S15))
 (= X9 (- (* X3 S14) S15))
 (= X9 (- S14 (* X3 S15)))
 (= X9 (+ (* X3 S14) (* X3 S15)))
 (= X9 (- (* X3 S14) (* X3 S15)))
 (= X9 (+ (* X3 S14) (* X4 S15)))
 (= X9 (- (* X3 S14) (* X4 S15)))
 (= X9 (- (* X4 S14) (* X3 S15)))
 (= X9 (+ (* X3 S14) (* X5 S15)))
 (= X9 (- (* X3 S14) (* X5 S15)))
 (= X9 (- (* X5 S14) (* X3 S15)))
 (= X9 (+ (* X3 S14) (* X6 S15)))
 (= X9 (- (* X3 S14) (* X6 S15)))
 (= X9 (- (* X6 S14) (* X3 S15)))
 (= X9 (+ (* X3 S14) (* X7 S15)))
 (= X9 (- (* X3 S14) (* X7 S15)))
 (= X9 (- (* X7 S14) (* X3 S15)))
 (= X9 (+ (* X3 S14) (* X8 S15)))
 (= X9 (- (* X3 S14) (* X8 S15)))
 (= X9 (- (* X8 S14) (* X3 S15)))
 (= X9 (+ (* X4 S14) S15))
 (= X9 (- (* X4 S14) S15))
 (= X9 (- S14 (* X4 S15)))
 (= X9 (+ (* X4 S14) (* X4 S15)))
 (= X9 (- (* X4 S14) (* X4 S15)))
 (= X9 (+ (* X4 S14) (* X5 S15)))
 (= X9 (- (* X4 S14) (* X5 S15)))
 (= X9 (- (* X5 S14) (* X4 S15)))
 (= X9 (+ (* X4 S14) (* X6 S15)))
 (= X9 (- (* X4 S14) (* X6 S15)))
 (= X9 (- (* X6 S14) (* X4 S15)))
 (= X9 (+ (* X4 S14) (* X7 S15)))
 (= X9 (- (* X4 S14) (* X7 S15)))
 (= X9 (- (* X7 S14) (* X4 S15)))
 (= X9 (+ (* X4 S14) (* X8 S15)))
 (= X9 (- (* X4 S14) (* X8 S15)))
 (= X9 (- (* X8 S14) (* X4 S15)))
 (= X9 (+ (* X5 S14) S15))
 (= X9 (- (* X5 S14) S15))
 (= X9 (- S14 (* X5 S15)))
 (= X9 (+ (* X5 S14) (* X5 S15)))
 (= X9 (- (* X5 S14) (* X5 S15)))
 (= X9 (+ (* X5 S14) (* X6 S15)))
 (= X9 (- (* X5 S14) (* X6 S15)))
 (= X9 (- (* X6 S14) (* X5 S15)))
 (= X9 (+ (* X5 S14) (* X7 S15)))
 (= X9 (- (* X5 S14) (* X7 S15)))
 (= X9 (- (* X7 S14) (* X5 S15)))
 (= X9 (+ (* X5 S14) (* X8 S15)))
 (= X9 (- (* X5 S14) (* X8 S15)))
 (= X9 (- (* X8 S14) (* X5 S15)))
 (= X9 (+ (* X6 S14) S15))
 (= X9 (- (* X6 S14) S15))
 (= X9 (- S14 (* X6 S15)))
 (= X9 (+ (* X6 S14) (* X6 S15)))
 (= X9 (- (* X6 S14) (* X6 S15)))
 (= X9 (+ (* X6 S14) (* X7 S15)))
 (= X9 (- (* X6 S14) (* X7 S15)))
 (= X9 (- (* X7 S14) (* X6 S15)))
 (= X9 (+ (* X6 S14) (* X8 S15)))
 (= X9 (- (* X6 S14) (* X8 S15)))
 (= X9 (- (* X8 S14) (* X6 S15)))
 (= X9 (+ (* X7 S14) S15))
 (= X9 (- (* X7 S14) S15))
 (= X9 (- S14 (* X7 S15)))
 (= X9 (+ (* X7 S14) (* X7 S15)))
 (= X9 (- (* X7 S14) (* X7 S15)))
 (= X9 (+ (* X7 S14) (* X8 S15)))
 (= X9 (- (* X7 S14) (* X8 S15)))
 (= X9 (- (* X8 S14) (* X7 S15)))
 (= X9 (+ (* X8 S14) S15))
 (= X9 (- (* X8 S14) S15))
 (= X9 (- S14 (* X8 S15)))
 (= X9 (+ (* X8 S14) (* X8 S15)))
 (= X9 (- (* X8 S14) (* X8 S15)))
))
(assert (and (> X9 0) (< X9 4096) (power2 S14) (power2 S15)))
(assert (or
 (= X10 (+ (* 31 S16) S17))
 (= X10 (- (* 31 S16) S17))
 (= X10 (- S16 (* 31 S17)))
 (= X10 (+ (* 31 S16) (* 31 S17)))
 (= X10 (- (* 31 S16) (* 31 S17)))
 (= X10 (+ (* 31 S16) (* 47 S17)))
 (= X10 (- (* 31 S16) (* 47 S17)))
 (= X10 (- (* 47 S16) (* 31 S17)))
 (= X10 (+ (* 31 S16) (* X2 S17)))
 (= X10 (- (* 31 S16) (* X2 S17)))
 (= X10 (- (* X2 S16) (* 31 S17)))
 (= X10 (+ (* 31 S16) (* X3 S17)))
 (= X10 (- (* 31 S16) (* X3 S17)))
 (= X10 (- (* X3 S16) (* 31 S17)))
 (= X10 (+ (* 31 S16) (* X4 S17)))
 (= X10 (- (* 31 S16) (* X4 S17)))
 (= X10 (- (* X4 S16) (* 31 S17)))
 (= X10 (+ (* 31 S16) (* X5 S17)))
 (= X10 (- (* 31 S16) (* X5 S17)))
 (= X10 (- (* X5 S16) (* 31 S17)))
 (= X10 (+ (* 31 S16) (* X6 S17)))
 (= X10 (- (* 31 S16) (* X6 S17)))
 (= X10 (- (* X6 S16) (* 31 S17)))
 (= X10 (+ (* 31 S16) (* X7 S17)))
 (= X10 (- (* 31 S16) (* X7 S17)))
 (= X10 (- (* X7 S16) (* 31 S17)))
 (= X10 (+ (* 31 S16) (* X8 S17)))
 (= X10 (- (* 31 S16) (* X8 S17)))
 (= X10 (- (* X8 S16) (* 31 S17)))
 (= X10 (+ (* 31 S16) (* X9 S17)))
 (= X10 (- (* 31 S16) (* X9 S17)))
 (= X10 (- (* X9 S16) (* 31 S17)))
 (= X10 (+ (* 47 S16) S17))
 (= X10 (- (* 47 S16) S17))
 (= X10 (- S16 (* 47 S17)))
 (= X10 (+ (* 47 S16) (* 47 S17)))
 (= X10 (- (* 47 S16) (* 47 S17)))
 (= X10 (+ (* 47 S16) (* X2 S17)))
 (= X10 (- (* 47 S16) (* X2 S17)))
 (= X10 (- (* X2 S16) (* 47 S17)))
 (= X10 (+ (* 47 S16) (* X3 S17)))
 (= X10 (- (* 47 S16) (* X3 S17)))
 (= X10 (- (* X3 S16) (* 47 S17)))
 (= X10 (+ (* 47 S16) (* X4 S17)))
 (= X10 (- (* 47 S16) (* X4 S17)))
 (= X10 (- (* X4 S16) (* 47 S17)))
 (= X10 (+ (* 47 S16) (* X5 S17)))
 (= X10 (- (* 47 S16) (* X5 S17)))
 (= X10 (- (* X5 S16) (* 47 S17)))
 (= X10 (+ (* 47 S16) (* X6 S17)))
 (= X10 (- (* 47 S16) (* X6 S17)))
 (= X10 (- (* X6 S16) (* 47 S17)))
 (= X10 (+ (* 47 S16) (* X7 S17)))
 (= X10 (- (* 47 S16) (* X7 S17)))
 (= X10 (- (* X7 S16) (* 47 S17)))
 (= X10 (+ (* 47 S16) (* X8 S17)))
 (= X10 (- (* 47 S16) (* X8 S17)))
 (= X10 (- (* X8 S16) (* 47 S17)))
 (= X10 (+ (* 47 S16) (* X9 S17)))
 (= X10 (- (* 47 S16) (* X9 S17)))
 (= X10 (- (* X9 S16) (* 47 S17)))
 (= X10 (+ (* X2 S16) S17))
 (= X10 (- (* X2 S16) S17))
 (= X10 (- S16 (* X2 S17)))
 (= X10 (+ (* X2 S16) (* X2 S17)))
 (= X10 (- (* X2 S16) (* X2 S17)))
 (= X10 (+ (* X2 S16) (* X3 S17)))
 (= X10 (- (* X2 S16) (* X3 S17)))
 (= X10 (- (* X3 S16) (* X2 S17)))
 (= X10 (+ (* X2 S16) (* X4 S17)))
 (= X10 (- (* X2 S16) (* X4 S17)))
 (= X10 (- (* X4 S16) (* X2 S17)))
 (= X10 (+ (* X2 S16) (* X5 S17)))
 (= X10 (- (* X2 S16) (* X5 S17)))
 (= X10 (- (* X5 S16) (* X2 S17)))
 (= X10 (+ (* X2 S16) (* X6 S17)))
 (= X10 (- (* X2 S16) (* X6 S17)))
 (= X10 (- (* X6 S16) (* X2 S17)))
 (= X10 (+ (* X2 S16) (* X7 S17)))
 (= X10 (- (* X2 S16) (* X7 S17)))
 (= X10 (- (* X7 S16) (* X2 S17)))
 (= X10 (+ (* X2 S16) (* X8 S17)))
 (= X10 (- (* X2 S16) (* X8 S17)))
 (= X10 (- (* X8 S16) (* X2 S17)))
 (= X10 (+ (* X2 S16) (* X9 S17)))
 (= X10 (- (* X2 S16) (* X9 S17)))
 (= X10 (- (* X9 S16) (* X2 S17)))
 (= X10 (+ (* X3 S16) S17))
 (= X10 (- (* X3 S16) S17))
 (= X10 (- S16 (* X3 S17)))
 (= X10 (+ (* X3 S16) (* X3 S17)))
 (= X10 (- (* X3 S16) (* X3 S17)))
 (= X10 (+ (* X3 S16) (* X4 S17)))
 (= X10 (- (* X3 S16) (* X4 S17)))
 (= X10 (- (* X4 S16) (* X3 S17)))
 (= X10 (+ (* X3 S16) (* X5 S17)))
 (= X10 (- (* X3 S16) (* X5 S17)))
 (= X10 (- (* X5 S16) (* X3 S17)))
 (= X10 (+ (* X3 S16) (* X6 S17)))
 (= X10 (- (* X3 S16) (* X6 S17)))
 (= X10 (- (* X6 S16) (* X3 S17)))
 (= X10 (+ (* X3 S16) (* X7 S17)))
 (= X10 (- (* X3 S16) (* X7 S17)))
 (= X10 (- (* X7 S16) (* X3 S17)))
 (= X10 (+ (* X3 S16) (* X8 S17)))
 (= X10 (- (* X3 S16) (* X8 S17)))
 (= X10 (- (* X8 S16) (* X3 S17)))
 (= X10 (+ (* X3 S16) (* X9 S17)))
 (= X10 (- (* X3 S16) (* X9 S17)))
 (= X10 (- (* X9 S16) (* X3 S17)))
 (= X10 (+ (* X4 S16) S17))
 (= X10 (- (* X4 S16) S17))
 (= X10 (- S16 (* X4 S17)))
 (= X10 (+ (* X4 S16) (* X4 S17)))
 (= X10 (- (* X4 S16) (* X4 S17)))
 (= X10 (+ (* X4 S16) (* X5 S17)))
 (= X10 (- (* X4 S16) (* X5 S17)))
 (= X10 (- (* X5 S16) (* X4 S17)))
 (= X10 (+ (* X4 S16) (* X6 S17)))
 (= X10 (- (* X4 S16) (* X6 S17)))
 (= X10 (- (* X6 S16) (* X4 S17)))
 (= X10 (+ (* X4 S16) (* X7 S17)))
 (= X10 (- (* X4 S16) (* X7 S17)))
 (= X10 (- (* X7 S16) (* X4 S17)))
 (= X10 (+ (* X4 S16) (* X8 S17)))
 (= X10 (- (* X4 S16) (* X8 S17)))
 (= X10 (- (* X8 S16) (* X4 S17)))
 (= X10 (+ (* X4 S16) (* X9 S17)))
 (= X10 (- (* X4 S16) (* X9 S17)))
 (= X10 (- (* X9 S16) (* X4 S17)))
 (= X10 (+ (* X5 S16) S17))
 (= X10 (- (* X5 S16) S17))
 (= X10 (- S16 (* X5 S17)))
 (= X10 (+ (* X5 S16) (* X5 S17)))
 (= X10 (- (* X5 S16) (* X5 S17)))
 (= X10 (+ (* X5 S16) (* X6 S17)))
 (= X10 (- (* X5 S16) (* X6 S17)))
 (= X10 (- (* X6 S16) (* X5 S17)))
 (= X10 (+ (* X5 S16) (* X7 S17)))
 (= X10 (- (* X5 S16) (* X7 S17)))
 (= X10 (- (* X7 S16) (* X5 S17)))
 (= X10 (+ (* X5 S16) (* X8 S17)))
 (= X10 (- (* X5 S16) (* X8 S17)))
 (= X10 (- (* X8 S16) (* X5 S17)))
 (= X10 (+ (* X5 S16) (* X9 S17)))
 (= X10 (- (* X5 S16) (* X9 S17)))
 (= X10 (- (* X9 S16) (* X5 S17)))
 (= X10 (+ (* X6 S16) S17))
 (= X10 (- (* X6 S16) S17))
 (= X10 (- S16 (* X6 S17)))
 (= X10 (+ (* X6 S16) (* X6 S17)))
 (= X10 (- (* X6 S16) (* X6 S17)))
 (= X10 (+ (* X6 S16) (* X7 S17)))
 (= X10 (- (* X6 S16) (* X7 S17)))
 (= X10 (- (* X7 S16) (* X6 S17)))
 (= X10 (+ (* X6 S16) (* X8 S17)))
 (= X10 (- (* X6 S16) (* X8 S17)))
 (= X10 (- (* X8 S16) (* X6 S17)))
 (= X10 (+ (* X6 S16) (* X9 S17)))
 (= X10 (- (* X6 S16) (* X9 S17)))
 (= X10 (- (* X9 S16) (* X6 S17)))
 (= X10 (+ (* X7 S16) S17))
 (= X10 (- (* X7 S16) S17))
 (= X10 (- S16 (* X7 S17)))
 (= X10 (+ (* X7 S16) (* X7 S17)))
 (= X10 (- (* X7 S16) (* X7 S17)))
 (= X10 (+ (* X7 S16) (* X8 S17)))
 (= X10 (- (* X7 S16) (* X8 S17)))
 (= X10 (- (* X8 S16) (* X7 S17)))
 (= X10 (+ (* X7 S16) (* X9 S17)))
 (= X10 (- (* X7 S16) (* X9 S17)))
 (= X10 (- (* X9 S16) (* X7 S17)))
 (= X10 (+ (* X8 S16) S17))
 (= X10 (- (* X8 S16) S17))
 (= X10 (- S16 (* X8 S17)))
 (= X10 (+ (* X8 S16) (* X8 S17)))
 (= X10 (- (* X8 S16) (* X8 S17)))
 (= X10 (+ (* X8 S16) (* X9 S17)))
 (= X10 (- (* X8 S16) (* X9 S17)))
 (= X10 (- (* X9 S16) (* X8 S17)))
 (= X10 (+ (* X9 S16) S17))
 (= X10 (- (* X9 S16) S17))
 (= X10 (- S16 (* X9 S17)))
 (= X10 (+ (* X9 S16) (* X9 S17)))
 (= X10 (- (* X9 S16) (* X9 S17)))
))
(assert (and (> X10 0) (< X10 4096) (power2 S16) (power2 S17)))
(assert (or
 (= X11 (+ (* 31 S18) S19))
 (= X11 (- (* 31 S18) S19))
 (= X11 (- S18 (* 31 S19)))
 (= X11 (+ (* 31 S18) (* 31 S19)))
 (= X11 (- (* 31 S18) (* 31 S19)))
 (= X11 (+ (* 31 S18) (* 47 S19)))
 (= X11 (- (* 31 S18) (* 47 S19)))
 (= X11 (- (* 47 S18) (* 31 S19)))
 (= X11 (+ (* 31 S18) (* X2 S19)))
 (= X11 (- (* 31 S18) (* X2 S19)))
 (= X11 (- (* X2 S18) (* 31 S19)))
 (= X11 (+ (* 31 S18) (* X3 S19)))
 (= X11 (- (* 31 S18) (* X3 S19)))
 (= X11 (- (* X3 S18) (* 31 S19)))
 (= X11 (+ (* 31 S18) (* X4 S19)))
 (= X11 (- (* 31 S18) (* X4 S19)))
 (= X11 (- (* X4 S18) (* 31 S19)))
 (= X11 (+ (* 31 S18) (* X5 S19)))
 (= X11 (- (* 31 S18) (* X5 S19)))
 (= X11 (- (* X5 S18) (* 31 S19)))
 (= X11 (+ (* 31 S18) (* X6 S19)))
 (= X11 (- (* 31 S18) (* X6 S19)))
 (= X11 (- (* X6 S18) (* 31 S19)))
 (= X11 (+ (* 31 S18) (* X7 S19)))
 (= X11 (- (* 31 S18) (* X7 S19)))
 (= X11 (- (* X7 S18) (* 31 S19)))
 (= X11 (+ (* 31 S18) (* X8 S19)))
 (= X11 (- (* 31 S18) (* X8 S19)))
 (= X11 (- (* X8 S18) (* 31 S19)))
 (= X11 (+ (* 31 S18) (* X9 S19)))
 (= X11 (- (* 31 S18) (* X9 S19)))
 (= X11 (- (* X9 S18) (* 31 S19)))
 (= X11 (+ (* 31 S18) (* X10 S19)))
 (= X11 (- (* 31 S18) (* X10 S19)))
 (= X11 (- (* X10 S18) (* 31 S19)))
 (= X11 (+ (* 47 S18) S19))
 (= X11 (- (* 47 S18) S19))
 (= X11 (- S18 (* 47 S19)))
 (= X11 (+ (* 47 S18) (* 47 S19)))
 (= X11 (- (* 47 S18) (* 47 S19)))
 (= X11 (+ (* 47 S18) (* X2 S19)))
 (= X11 (- (* 47 S18) (* X2 S19)))
 (= X11 (- (* X2 S18) (* 47 S19)))
 (= X11 (+ (* 47 S18) (* X3 S19)))
 (= X11 (- (* 47 S18) (* X3 S19)))
 (= X11 (- (* X3 S18) (* 47 S19)))
 (= X11 (+ (* 47 S18) (* X4 S19)))
 (= X11 (- (* 47 S18) (* X4 S19)))
 (= X11 (- (* X4 S18) (* 47 S19)))
 (= X11 (+ (* 47 S18) (* X5 S19)))
 (= X11 (- (* 47 S18) (* X5 S19)))
 (= X11 (- (* X5 S18) (* 47 S19)))
 (= X11 (+ (* 47 S18) (* X6 S19)))
 (= X11 (- (* 47 S18) (* X6 S19)))
 (= X11 (- (* X6 S18) (* 47 S19)))
 (= X11 (+ (* 47 S18) (* X7 S19)))
 (= X11 (- (* 47 S18) (* X7 S19)))
 (= X11 (- (* X7 S18) (* 47 S19)))
 (= X11 (+ (* 47 S18) (* X8 S19)))
 (= X11 (- (* 47 S18) (* X8 S19)))
 (= X11 (- (* X8 S18) (* 47 S19)))
 (= X11 (+ (* 47 S18) (* X9 S19)))
 (= X11 (- (* 47 S18) (* X9 S19)))
 (= X11 (- (* X9 S18) (* 47 S19)))
 (= X11 (+ (* 47 S18) (* X10 S19)))
 (= X11 (- (* 47 S18) (* X10 S19)))
 (= X11 (- (* X10 S18) (* 47 S19)))
 (= X11 (+ (* X2 S18) S19))
 (= X11 (- (* X2 S18) S19))
 (= X11 (- S18 (* X2 S19)))
 (= X11 (+ (* X2 S18) (* X2 S19)))
 (= X11 (- (* X2 S18) (* X2 S19)))
 (= X11 (+ (* X2 S18) (* X3 S19)))
 (= X11 (- (* X2 S18) (* X3 S19)))
 (= X11 (- (* X3 S18) (* X2 S19)))
 (= X11 (+ (* X2 S18) (* X4 S19)))
 (= X11 (- (* X2 S18) (* X4 S19)))
 (= X11 (- (* X4 S18) (* X2 S19)))
 (= X11 (+ (* X2 S18) (* X5 S19)))
 (= X11 (- (* X2 S18) (* X5 S19)))
 (= X11 (- (* X5 S18) (* X2 S19)))
 (= X11 (+ (* X2 S18) (* X6 S19)))
 (= X11 (- (* X2 S18) (* X6 S19)))
 (= X11 (- (* X6 S18) (* X2 S19)))
 (= X11 (+ (* X2 S18) (* X7 S19)))
 (= X11 (- (* X2 S18) (* X7 S19)))
 (= X11 (- (* X7 S18) (* X2 S19)))
 (= X11 (+ (* X2 S18) (* X8 S19)))
 (= X11 (- (* X2 S18) (* X8 S19)))
 (= X11 (- (* X8 S18) (* X2 S19)))
 (= X11 (+ (* X2 S18) (* X9 S19)))
 (= X11 (- (* X2 S18) (* X9 S19)))
 (= X11 (- (* X9 S18) (* X2 S19)))
 (= X11 (+ (* X2 S18) (* X10 S19)))
 (= X11 (- (* X2 S18) (* X10 S19)))
 (= X11 (- (* X10 S18) (* X2 S19)))
 (= X11 (+ (* X3 S18) S19))
 (= X11 (- (* X3 S18) S19))
 (= X11 (- S18 (* X3 S19)))
 (= X11 (+ (* X3 S18) (* X3 S19)))
 (= X11 (- (* X3 S18) (* X3 S19)))
 (= X11 (+ (* X3 S18) (* X4 S19)))
 (= X11 (- (* X3 S18) (* X4 S19)))
 (= X11 (- (* X4 S18) (* X3 S19)))
 (= X11 (+ (* X3 S18) (* X5 S19)))
 (= X11 (- (* X3 S18) (* X5 S19)))
 (= X11 (- (* X5 S18) (* X3 S19)))
 (= X11 (+ (* X3 S18) (* X6 S19)))
 (= X11 (- (* X3 S18) (* X6 S19)))
 (= X11 (- (* X6 S18) (* X3 S19)))
 (= X11 (+ (* X3 S18) (* X7 S19)))
 (= X11 (- (* X3 S18) (* X7 S19)))
 (= X11 (- (* X7 S18) (* X3 S19)))
 (= X11 (+ (* X3 S18) (* X8 S19)))
 (= X11 (- (* X3 S18) (* X8 S19)))
 (= X11 (- (* X8 S18) (* X3 S19)))
 (= X11 (+ (* X3 S18) (* X9 S19)))
 (= X11 (- (* X3 S18) (* X9 S19)))
 (= X11 (- (* X9 S18) (* X3 S19)))
 (= X11 (+ (* X3 S18) (* X10 S19)))
 (= X11 (- (* X3 S18) (* X10 S19)))
 (= X11 (- (* X10 S18) (* X3 S19)))
 (= X11 (+ (* X4 S18) S19))
 (= X11 (- (* X4 S18) S19))
 (= X11 (- S18 (* X4 S19)))
 (= X11 (+ (* X4 S18) (* X4 S19)))
 (= X11 (- (* X4 S18) (* X4 S19)))
 (= X11 (+ (* X4 S18) (* X5 S19)))
 (= X11 (- (* X4 S18) (* X5 S19)))
 (= X11 (- (* X5 S18) (* X4 S19)))
 (= X11 (+ (* X4 S18) (* X6 S19)))
 (= X11 (- (* X4 S18) (* X6 S19)))
 (= X11 (- (* X6 S18) (* X4 S19)))
 (= X11 (+ (* X4 S18) (* X7 S19)))
 (= X11 (- (* X4 S18) (* X7 S19)))
 (= X11 (- (* X7 S18) (* X4 S19)))
 (= X11 (+ (* X4 S18) (* X8 S19)))
 (= X11 (- (* X4 S18) (* X8 S19)))
 (= X11 (- (* X8 S18) (* X4 S19)))
 (= X11 (+ (* X4 S18) (* X9 S19)))
 (= X11 (- (* X4 S18) (* X9 S19)))
 (= X11 (- (* X9 S18) (* X4 S19)))
 (= X11 (+ (* X4 S18) (* X10 S19)))
 (= X11 (- (* X4 S18) (* X10 S19)))
 (= X11 (- (* X10 S18) (* X4 S19)))
 (= X11 (+ (* X5 S18) S19))
 (= X11 (- (* X5 S18) S19))
 (= X11 (- S18 (* X5 S19)))
 (= X11 (+ (* X5 S18) (* X5 S19)))
 (= X11 (- (* X5 S18) (* X5 S19)))
 (= X11 (+ (* X5 S18) (* X6 S19)))
 (= X11 (- (* X5 S18) (* X6 S19)))
 (= X11 (- (* X6 S18) (* X5 S19)))
 (= X11 (+ (* X5 S18) (* X7 S19)))
 (= X11 (- (* X5 S18) (* X7 S19)))
 (= X11 (- (* X7 S18) (* X5 S19)))
 (= X11 (+ (* X5 S18) (* X8 S19)))
 (= X11 (- (* X5 S18) (* X8 S19)))
 (= X11 (- (* X8 S18) (* X5 S19)))
 (= X11 (+ (* X5 S18) (* X9 S19)))
 (= X11 (- (* X5 S18) (* X9 S19)))
 (= X11 (- (* X9 S18) (* X5 S19)))
 (= X11 (+ (* X5 S18) (* X10 S19)))
 (= X11 (- (* X5 S18) (* X10 S19)))
 (= X11 (- (* X10 S18) (* X5 S19)))
 (= X11 (+ (* X6 S18) S19))
 (= X11 (- (* X6 S18) S19))
 (= X11 (- S18 (* X6 S19)))
 (= X11 (+ (* X6 S18) (* X6 S19)))
 (= X11 (- (* X6 S18) (* X6 S19)))
 (= X11 (+ (* X6 S18) (* X7 S19)))
 (= X11 (- (* X6 S18) (* X7 S19)))
 (= X11 (- (* X7 S18) (* X6 S19)))
 (= X11 (+ (* X6 S18) (* X8 S19)))
 (= X11 (- (* X6 S18) (* X8 S19)))
 (= X11 (- (* X8 S18) (* X6 S19)))
 (= X11 (+ (* X6 S18) (* X9 S19)))
 (= X11 (- (* X6 S18) (* X9 S19)))
 (= X11 (- (* X9 S18) (* X6 S19)))
 (= X11 (+ (* X6 S18) (* X10 S19)))
 (= X11 (- (* X6 S18) (* X10 S19)))
 (= X11 (- (* X10 S18) (* X6 S19)))
 (= X11 (+ (* X7 S18) S19))
 (= X11 (- (* X7 S18) S19))
 (= X11 (- S18 (* X7 S19)))
 (= X11 (+ (* X7 S18) (* X7 S19)))
 (= X11 (- (* X7 S18) (* X7 S19)))
 (= X11 (+ (* X7 S18) (* X8 S19)))
 (= X11 (- (* X7 S18) (* X8 S19)))
 (= X11 (- (* X8 S18) (* X7 S19)))
 (= X11 (+ (* X7 S18) (* X9 S19)))
 (= X11 (- (* X7 S18) (* X9 S19)))
 (= X11 (- (* X9 S18) (* X7 S19)))
 (= X11 (+ (* X7 S18) (* X10 S19)))
 (= X11 (- (* X7 S18) (* X10 S19)))
 (= X11 (- (* X10 S18) (* X7 S19)))
 (= X11 (+ (* X8 S18) S19))
 (= X11 (- (* X8 S18) S19))
 (= X11 (- S18 (* X8 S19)))
 (= X11 (+ (* X8 S18) (* X8 S19)))
 (= X11 (- (* X8 S18) (* X8 S19)))
 (= X11 (+ (* X8 S18) (* X9 S19)))
 (= X11 (- (* X8 S18) (* X9 S19)))
 (= X11 (- (* X9 S18) (* X8 S19)))
 (= X11 (+ (* X8 S18) (* X10 S19)))
 (= X11 (- (* X8 S18) (* X10 S19)))
 (= X11 (- (* X10 S18) (* X8 S19)))
 (= X11 (+ (* X9 S18) S19))
 (= X11 (- (* X9 S18) S19))
 (= X11 (- S18 (* X9 S19)))
 (= X11 (+ (* X9 S18) (* X9 S19)))
 (= X11 (- (* X9 S18) (* X9 S19)))
 (= X11 (+ (* X9 S18) (* X10 S19)))
 (= X11 (- (* X9 S18) (* X10 S19)))
 (= X11 (- (* X10 S18) (* X9 S19)))
 (= X11 (+ (* X10 S18) S19))
 (= X11 (- (* X10 S18) S19))
 (= X11 (- S18 (* X10 S19)))
 (= X11 (+ (* X10 S18) (* X10 S19)))
 (= X11 (- (* X10 S18) (* X10 S19)))
))
(assert (and (> X11 0) (< X11 4096) (power2 S18) (power2 S19)))
(assert (or
 (= X3 741)
 (= X4 741)
 (= X5 741)
 (= X6 741)
 (= X7 741)
 (= X8 741)
 (= X9 741)
 (= X10 741)
 (= X11 741)
))
(assert (or
 (= X3 13)
 (= X4 13)
 (= X5 13)
 (= X6 13)
 (= X7 13)
 (= X8 13)
 (= X9 13)
 (= X10 13)
 (= X11 13)
))
(assert (or
 (= X3 71)
 (= X4 71)
 (= X5 71)
 (= X6 71)
 (= X7 71)
 (= X8 71)
 (= X9 71)
 (= X10 71)
 (= X11 71)
))
(assert (or
 (= X3 1429)
 (= X4 1429)
 (= X5 1429)
 (= X6 1429)
 (= X7 1429)
 (= X8 1429)
 (= X9 1429)
 (= X10 1429)
 (= X11 1429)
))
(assert (or
 (= X3 1797)
 (= X4 1797)
 (= X5 1797)
 (= X6 1797)
 (= X7 1797)
 (= X8 1797)
 (= X9 1797)
 (= X10 1797)
 (= X11 1797)
))
(assert (or
 (= X3 583)
 (= X4 583)
 (= X5 583)
 (= X6 583)
 (= X7 583)
 (= X8 583)
 (= X9 583)
 (= X10 583)
 (= X11 583)
))
(assert (or
 (= X3 827)
 (= X4 827)
 (= X5 827)
 (= X6 827)
 (= X7 827)
 (= X8 827)
 (= X9 827)
 (= X10 827)
 (= X11 827)
))
(assert (or
 (= X3 1489)
 (= X4 1489)
 (= X5 1489)
 (= X6 1489)
 (= X7 1489)
 (= X8 1489)
 (= X9 1489)
 (= X10 1489)
 (= X11 1489)
))
(check-sat)
(exit)
